122416
0 12 21 33 22 23 20 13 1 9 8 25 24 32 11 135 123 114 102 113 112 103 115 122 134 126 127 110 111 125 124 101 89 80 71 79 78 70 81 88 92 77 100 91 90 76 93 82 116 35 47 54 58 59 53 42 43 44 45 34 46 55 64 56 57 65 66 52 48 36 41 40 49 51 67 61 60 31 18 14 15 17 28 29 4 5 3 6 7 133 121 117 109 108 105 130 131 106 107 118 120 132 129 128 104 99 87 83 69 75 98 96 86 84 95 94 74 68 73 72 97 85 119 16 50 63 62 38 39 37 30 27 26 2 19 10 
